99 100
83 8 2
85 6 1
43 54 1
79 42 1
49 92 1
43 59 1
81 32 1
20 34 1
48 19 1
88 78 1
96 32 1
59 36 1
1 80 1
78 85 1
76 8 1
21 37 1
65 95 1
99 36 1
45 51 1
59 60 1
28 20 1
76 20 1
58 81 1
63 60 1
13 45 1
63 58 1
3 56 1
55 26 1
74 91 1
50 7 1
3 63 1
91 80 1
2 14 1
58 55 1
14 24 1
60 77 1
17 3 1
42 25 1
24 96 1
77 81 1
93 71 1
55 68 1
17 93 1
69 2 1
32 84 1
63 61 1
50 88 1
15 55 1
15 84 1
37 30 1
4 83 1
73 64 1
30 29 1
99 66 1
36 99 1
29 83 1
100 5 1
5 90 1
34 92 1
7 1 1
81 37 1
44 58 1
19 51 1
62 40 1
60 79 1
37 58 1
48 99 1
82 57 1
61 21 1
41 13 1
10 90 1
91 39 1
40 84 1
44 79 1
27 13 1
44 10 1
84 23 1
69 43 1
54 92 1
29 24 1
16 29 1
70 30 1
81 80 1
69 71 1
92 23 1
38 93 1
28 69 1
20 73 1
1 61 1
93 22 1
53 78 1
70 85 1
64 31 1
93 39 1
44 65 1
41 96 1
38 56 1
25 100 1
23 17 1
300 300 
300 300 
300 300 
300 300 
300 300 
300 300 
300 300 
300 300 
300 300 
300 300 
300 300 
300 300 
300 300 
300 300 
300 300 
300 300 
300 300 
300 300 
300 300 
300 300 
300 300 
300 300 
300 300 
300 300 
300 300 
300 300 
300 300 
300 300 
300 300 
300 300 
300 300 
300 300 
300 300 
300 300 
300 300 
300 300 
300 300 
300 300 
300 300 
300 300 
300 300 
300 300 
300 300 
300 300 
300 300 
300 300 
300 300 
300 300 
300 300 
300 300 
300 300 
300 300 
300 300 
300 300 
300 300 
300 300 
300 300 
300 300 
300 300 
300 300 
300 300 
300 300 
300 300 
300 300 
300 300 
300 300 
300 300 
300 300 
300 300 
300 300 
300 300 
300 300 
300 300 
300 300 
300 300 
300 300 
300 300 
300 300 
300 300 
300 300 
300 300 
300 300 
300 300 
300 300 
300 300 
300 300 
300 300 
300 300 
300 300 
300 300 
300 300 
300 300 
300 300 
300 300 
300 300 
300 300 
300 300 
300 300 
300 300 
300 300 
